SCIP version 5.0.0 [precision: 8 byte] [memory: block] [mode: optimized] [LP solver: NONE] [GitHash: 3bbd232]
Copyright (C) 2002-2017 Konrad-Zuse-Zentrum fuer Informationstechnik Berlin (ZIB)

External codes: 
  Readline EditLine w  GNU library for command line editing (gnu.org/s/readline)
  CppAD 20160000.1     Algorithmic Differentiation of C++ algorithms developed by B. Bell (www.coin-or.org/CppAD)
  ZLIB 1.2.5           General purpose compression library by J. Gailly and M. Adler (zlib.net)
  GMP 6.1.2            GNU Multiple Precision Arithmetic Library developed by T. Granlund (gmplib.org)

user parameter file <scip.set> not found - using default parameters

read problem <../../Split_data/output/parkin/5/3_sample_parkin.logreg>
============

File name	:	../../Split_data/output/parkin/5/3_sample_parkin.logreg
Problem name 	:	3_sample_parkin
Number of data	:	156
Number of var	:	22
The given data has linear independence

[dim=1] time: 0.003145
[dim=2] time: 0.006382
[dim=3] time: 0.01034
[dim=4] time: 0.01391
[dim=5] time: 0.01743
[dim=6] time: 0.019886
[dim=7] Time of forward = 0.022877sec.
AIC: 108.456
k: 6

[dim=22] time: 0.069606
[dim=21] time: 0.10247
[dim=20] time: 0.239291
[dim=19] time: 0.241943
[dim=18] time: 0.244879
[dim=17] time: 0.260924
[dim=16] time: 0.274393
[dim=15] time: 0.27965
[dim=14] time: 0.296276
[dim=13] time: 0.308942
[dim=12] time: 0.325064
[dim=11] time: 0.328076
[dim=10] time: 0.330571
[dim=9] time: 0.332197
[dim=8] Time of backward = 0.334068sec.
AIC: 101.415
k: 9
